c A SAT instance generated from a 3-CNF formula that had 30 clauses and 21 variables
p cnf 21 30
6 -16 17 0
-7 20 -16 0
-6 -20 4 0
-4 -7 -14 0
9 -17 12 0
14 2 15 0
-14 -1 -5 0
-21 4 5 0
-12 -20 11 0
19 -18 -21 0
16 20 -3 0
7 16 -6 0
9 10 11 0
-3 -7 21 0
8 -11 -10 0
-1 16 8 0
-4 13 -8 0
8 -21 -9 0
-12 -10 16 0
-7 -2 1 0
21 -16 -9 0
-8 15 -21 0
-16 -4 8 0
-15 -7 11 0
-16 -2 4 0
-17 -16 21 0
-21 8 -16 0
12 -19 -15 0
-16 12 -14 0
-17 -8 -10 0
